0 61 90 80 97 87 55 61 76 69 83 63 81 59 71 57 98 90 58 68 77 76 59 86 65 92 66 67 66 50 75 57 71 53 53 95 73 85 53 97 97 56 78 86 74 51 62 66 74 71 67 69 58 51 98 88 77 59 78 59 61 61 81 53 93 50 96 81 80 97 92 82 54 94 71 98 88 86 